language Essence 1.3

letting bot_end be
        [85, 560, 32, 6, 499, 35, 583, 36, 165, 7, 234, 0, 205, 568, 646, 249, 624, 265, 365, 218; int(1..20)]
letting bot_start be
        [440, 214, 470, 364, 69, 482, 36, 560, 571, 524, 601, 349, 566, 89, 271, 625, 210, 645, 13, 646; int(1..20)]
letting buffer_col be 2
letting buffer_row be 2
letting corridor_size be 1
letting n_shelves_col be 1
letting n_shelves_row be 45
letting shelf_col_size be 2
letting shelf_row_size be 1
